n=150;
k_min=3;
k_max=3;
M=[| 0.28, 1.0, 0.0
 | 0.28, 1.0, 0.0
 | 0.28, 0.96, 0.0
 | 0.28, 0.98, 0.0
 | 0.28, 1.0, 0.0
 | 0.28, 1.0, 0.0
 | 0.28, 0.98, 0.0
 | 0.28, 0.94, 0.0
 | 0.28, 0.94, 0.0
 | 0.28, 1.0, 0.0
 | 0.28, 0.92, 0.0
 | 0.28, 1.0, 0.0
 | 0.28, 1, 0.0
 | 0.28, 0.94, 0.0
 | 0.28, 1.0, 0.0
 | 0.28, 1.0, 0.0
 | 0.28, 1.0, 0.0
 | 0.28, 1.0, 0.0
 | 0.28, 1.0, 0.0
 | 0.28, 0.86, 0.0
 | 0.28, 0.96, 0.0
 | 0.28, 0.96, 0.0
 | 0.28, 0.88, 0.0
 | 0.28, 1.0, 0.0
 | 0.28, 1.0, 0.0
 | 0.28, 1.0, 0.0
 | 0.28, 1.0, 0.0
 | 0.28, 0.96, 0.0
 | 0.0, 1.0, 0.0
 | 0.28, 1.0, 0.0
 | 0.28, 1.0, 0.0
 | 0.28, 0.96, 0.0
 | 0.28, 1.0, 0.0
 | 0.28, 1.0, 0.0
 | 0.28, 1.0, 0.0
 | 0.0, 0.88, 0.0
 | 0.28, 0.88, 0.0
 | 0.28, 1.0, 0.0
 | 0.28, 0.94, 0.0
 | 0.28, 1.0, 0.0
 | 0.28, 1.0, 0.0
 | 0.28, 0.96, 0.0
 | 0.28, 0.94, 0.0
 | 0.28, 1.0, 0.0
 | 0.28, 0.86, 0.0
 | 0.28, 1.0, 0.0
 | 0.28, 0.86, 0.0
 | 0.28, 0.96, 0.0
 | 0.28, 1, 0.0
 | 0.28, 0.98, 0.0
 | 1.0, 0.0, 0.28
 | 1.0, 0.0, 0.28
 | 1.0, 0.0, 0.36
 | 1.0, 0.0, 0.28
 | 1.0, 0.0, 0.28
 | 1, 0.0, 0.28
 | 0.98, 0.0, 0.28
 | 1.0, 0.28, 0.0
 | 1.0, 0.0, 0.28
 | 0.98, 0.0, 0.28
 | 0.84, 0.0, 0.28
 | 0.88, 0.0, 0.28
 | 0.96, 0.0, 0.28
 | 1.0, 0.0, 0.28
 | 1.0, 0.0, 0.28
 | 1.0, 0.0, 0.28
 | 0.88, 0.0, 0.28
 | 0.98, 0.0, 0.28
 | 0.8, 0.0, 0.28
 | 1.0, 0.0, 0.28
 | 0.96, 0.0, 0.28
 | 0.94, 0.0, 0.28
 | 1.0, 0.0, 0.28
 | 1.0, 0.0, 0.28
 | 0.98, 0.0, 0.28
 | 1.0, 0.0, 0.28
 | 1.0, 0.0, 0.28
 | 0.94, 0.0, 0.36
 | 0.88, 0.0, 0.28
 | 0.9, 0.0, 0.28
 | 0.94, 0.0, 0.0
 | 0.9, 0.0, 0.28
 | 0.98, 0.0, 0.0
 | 1.0, 0.0, 0.28
 | 1, 0.0, 0.28
 | 0.98, 0.0, 0.28
 | 1.0, 0.0, 0.28
 | 0.96, 0.0, 0.28
 | 1.0, 0.0, 0.28
 | 0.96, 0.0, 0.28
 | 1.0, 0.0, 0.28
 | 0.98, 0.0, 0.28
 | 0.98, 0.0, 0.28
 | 1.0, 0.28, 0.0
 | 1.0, 0.0, 0.28
 | 0.98, 0.0, 0.28
 | 0.98, 0.0, 0.28
 | 0.96, 0.0, 0.28
 | 1.0, 0.28, 0.0
 | 1.0, 0.0, 0.28
 | 0.9, 0.0, 0.42
 | 0.98, 0.0, 0.28
 | 0.5, 0.0, 0.9
 | 0.98, 0.0, 0.42
 | 0.9, 0.0, 0.42
 | 0.42, 0.0, 1.0
 | 0.96, 0.0, 0.28
 | 0.42, 0.0, 0.98
 | 0.96, 0.0, 0.42
 | 0.42, 0.0, 0.96
 | 0.94, 0.0, 0.36
 | 0.68, 0.0, 0.36
 | 1.0, 0.0, 0.42
 | 0.98, 0.0, 0.28
 | 0.9, 0.0, 0.28
 | 0.94, 0.0, 0.42
 | 0.98, 0.0, 0.42
 | 0.42, 0.0, 0.96
 | 0.42, 0.0, 1.0
 | 1.0, 0.0, 0.28
 | 0.9, 0.0, 0.42
 | 0.98, 0.0, 0.28
 | 0.42, 0.0, 1.0
 | 1.0, 0.0, 0.28
 | 0.9, 0.0, 1
 | 0.42, 0.0, 0.98
 | 1.0, 0.0, 0.28
 | 0.98, 0.0, 0.28
 | 0.98, 0.0, 0.42
 | 0.5, 0.0, 0.9
 | 0.42, 0.0, 0.98
 | 0.42, 0.0, 0.96
 | 0.98, 0.0, 0.42
 | 1.0, 0.0, 0.28
 | 0.9, 0.0, 0.36
 | 0.42, 0.0, 1.0
 | 0.9, 0.0, 0.42
 | 0.98, 0.0, 0.42
 | 0.96, 0.0, 0.28
 | 1.0, 0.0, 0.42
 | 0.9, 0.0, 0.42
 | 1.0, 0.0, 0.42
 | 0.98, 0.0, 0.28
 | 0.9, 0.0, 0.42
 | 0.9, 0.0, 0.42
 | 1.0, 0.0, 0.42
 | 1.0, 0.0, 0.28
 | 0.94, 0.0, 0.36
 | 0.9, 0.0, 0.42
 | 0.98, 0.0, 0.28 |];
 P=[2, 2, 2, 2, 2, 2, 2, 2, 2, 2, 2, 2, 2, 2, 2, 2, 2, 2, 2, 2, 2, 2, 2, 2, 2, 2, 2, 2, 2, 2, 2, 2, 2, 2, 2, 2, 2, 2, 2, 2, 2, 2, 2, 2, 2, 2, 2, 2, 2, 2, 1, 1, 1, 1, 1, 1, 1, 1, 1, 1, 1, 1, 1, 1, 1, 1, 1, 1, 1, 1, 1, 1, 1, 1, 1, 1, 1, 1, 1, 1, 1, 1, 1, 1, 1, 1, 1, 1, 1, 1, 1, 1, 1, 1, 1, 1, 1, 1, 1, 1, 1, 1, 3, 1, 1, 3, 1, 3, 1, 3, 1, 1, 1, 1, 1, 1, 1, 3, 3, 1, 1, 1, 3, 1, 1, 3, 1, 1, 1, 3, 3, 3, 1, 1, 1, 3, 1, 1, 1, 1, 1, 1, 1, 1, 1, 1, 1, 1, 1, 1 ];